; aiosonic :: corpus-study/repo_src/aiosonic/aiosonic/http2.py :: EVENT 'Http2Handler._window_updated' :: naive encoding (verdict: sat)
; Generated by snf-pipeline (encoder.py) -- run with any
; SMT-LIB2-compliant solver, e.g. `z3 aiosonic__corpus-study_repo_src_aiosonic_aiosonic_http2.py__Http2Handler._window_updated__naive.smt2`
; benchmark generated from python API
(set-info :status unknown)
(declare-fun ewake2_0 () Bool)
(assert
 (let (($x26 (not ewake2_0)))
(or $x26)))
(check-sat)
